p cnf 50 250
1 -50 -48 0
1 -50 -32 0
1 -50 -27 0
1 -50 38 0
1 -50 48 0
1 -49 -42 0
1 -49 -35 0
1 -49 -28 0
1 -49 -22 0
1 -49 2 0
1 -48 -14 0
1 -48 -6 0
1 -48 34 0
1 -48 38 0
1 -47 -7 0
1 -47 8 0
1 -47 22 0
1 -47 27 0
1 -47 41 0
1 -46 -36 0
1 -46 -5 0
1 -46 5 0
1 -46 7 0
1 -46 10 0
1 -45 -32 0
1 -45 9 0
1 -45 14 0
1 -45 35 0
1 -45 46 0
1 -44 -6 0
1 -44 24 0
1 -44 35 0
1 -44 42 0
1 -44 45 0
1 -43 -23 0
1 -43 18 0
1 -43 28 0
1 -43 29 0
1 -43 33 0
1 -42 -41 0
1 -42 -37 0
1 -42 -21 0
1 -42 26 0
1 -41 -35 0
1 -41 -21 0
1 -41 -15 0
1 -41 48 0
1 -40 20 0
1 -40 25 0
1 -40 31 0
1 -40 39 0
1 -40 50 0
1 -39 -33 0
1 -39 -18 0
1 -39 -16 0
1 -39 1 0
1 -39 33 0
1 -38 4 0
1 -38 6 0
1 -38 8 0
1 -38 24 0
1 -38 35 0
1 -37 -15 0
1 -37 -12 0
1 -37 1 0
1 -37 19 0
1 -36 -17 0
1 -36 9 0
1 -36 16 0
1 -36 45 0
1 -35 -34 0
1 -35 21 0
1 -35 24 0
1 -34 -30 0
1 -34 8 0
1 -34 14 0
1 -34 35 0
1 -33 -12 0
1 -33 -9 0
1 -33 24 0
1 -33 32 0
1 -32 -4 0
1 -32 3 0
1 -32 36 0
1 -31 -23 0
1 -31 -17 0
1 -31 3 0
1 -31 9 0
1 -31 25 0
1 -30 -13 0
1 -30 -9 0
1 -30 16 0
1 -30 42 0
1 -29 -27 0
1 -29 -26 0
1 -29 13 0
1 -29 21 0
1 -29 34 0
1 -28 -3 0
1 -28 39 0
1 -28 41 0
1 -28 43 0
1 -27 -14 0
1 -27 -4 0
1 -27 43 0
1 -26 -25 0
1 -26 -18 0
1 -26 -14 0
1 -26 -7 0
1 -25 -20 0
1 -25 -12 0
1 -25 -6 0
1 -25 10 0
1 -24 -22 0
1 -24 -2 0
1 -24 15 0
1 -24 32 0
1 -24 44 0
1 -23 2 0
1 -23 12 0
1 -23 31 0
1 -22 -18 0
1 -22 18 0
1 -22 27 0
1 -21 12 0
1 -21 29 0
1 -21 34 0
1 -20 -10 0
1 -20 -8 0
1 -20 5 0
1 -20 49 0
1 -19 -8 0
1 -19 7 0
1 -19 20 0
1 -19 41 0
1 -19 46 0
1 -18 12 0
1 -18 49 0
1 -17 -14 0
1 -17 -1 0
1 -17 36 0
1 -16 -6 0
1 -16 19 0
1 -16 28 0
1 -16 47 0
1 -15 -13 0
1 -15 7 0
1 -15 50 0
1 -14 49 0
1 -13 -5 0
1 -13 9 0
1 -13 15 0
1 -12 5 0
1 -12 26 0
1 -11 -9 0
1 -11 -6 0
1 -11 -2 0
1 -11 2 0
1 -11 49 0
1 -10 -2 0
1 -10 11 0
1 -10 36 0
1 -10 50 0
1 -9 21 0
1 -9 25 0
1 -8 9 0
1 -8 30 0
1 -8 33 0
1 -7 -3 0
1 -7 11 0
1 -7 30 0
1 -5 19 0
1 -5 32 0
1 -5 45 0
1 -4 30 0
1 -4 31 0
1 -4 46 0
1 -3 14 0
1 -3 27 0
1 -3 38 0
1 -2 -1 0
1 -2 10 0
1 -1 18 0
1 -1 25 0
1 -1 48 0
1 1 18 0
1 1 40 0
1 1 43 0
1 2 18 0
1 2 22 0
1 3 4 0
1 3 8 0
1 3 36 0
1 4 34 0
1 4 37 0
1 4 41 0
1 5 10 0
1 5 21 0
1 6 11 0
1 6 19 0
1 6 31 0
1 6 40 0
1 7 21 0
1 7 35 0
1 8 44 0
1 10 48 0
1 11 23 0
1 11 32 0
1 12 30 0
1 12 40 0
1 13 17 0
1 13 23 0
1 13 27 0
1 13 47 0
1 14 22 0
1 14 50 0
1 15 30 0
1 15 44 0
1 15 45 0
1 16 29 0
1 16 47 0
1 16 50 0
1 17 23 0
1 17 26 0
1 17 28 0
1 17 39 0
1 19 33 0
1 20 24 0
1 20 36 0
1 20 38 0
1 22 26 0
1 22 33 0
1 23 28 0
1 23 46 0
1 25 47 0
1 26 32 0
1 27 45 0
1 28 31 0
1 29 37 0
1 29 46 0
1 34 38 0
1 37 39 0
1 37 42 0
1 37 44 0
1 39 41 0
1 40 42 0
1 40 43 0
1 42 48 0
1 43 49 0
1 44 47 0
